%griglia rappresentata come array unidimensionale
board = [                         
 _,  0,  _,  _,  _,  _,   0,  
 _,  _,  _,  0,  _,  _,   _,
 _,  0,  _,  _,  _,  _,   0,
 0,  0,  _,  _,  _,  0,   _,
 _,  _,  _,  0,  _,  _,   _,
];


%ogni riga rappresenta un segmento di caselle contigue
segments = [| 
%across  
 3,   4,   5,  6, 0|
 8,   9,  10,  0, 0|
12,  13,  14,  0, 0|
17,  18,  19, 20, 0|
24,  25,  26,  0, 0|
29,  30,  31,  0, 0|
33,  34,  35,  0, 0|
%down
 1,   8, 15,  0,  0|
 3,  10, 17, 24, 30|
18,  25,  0,  0,  0|
 5,  12, 19, 26, 33|
 6,  13, 20,  0,  0|
28,  35,  0,  0,  0|
|];

%data
solutions = {6, 8, 24, 28, 30, 36, 42, 54, 64, 70, 84, 90, 96};
rows=5; 
columns=7; 
r=1;
s=9;  
maxlengthseg= 5; %massima lunghezza dei segmenti